NAME: Explicit-10
TYPE: CVRP
DIMENSION: 3
CAPACITY: 2
DISTANCE: 6
EDGE_WEIGHT_TYPE: EXPLICIT
EDGE_WEIGHT_FORMAT: FULL_MATRIX
NODE_COORD_TYPE: TWOD_COORDS
NODE_COORD_SECTION
1 0 0
2 1 1
3 3 3
EDGE_WEIGHT_SECTION
0 2 3
2 0 1
3 2 0
DEMAND_SECTION
1 0
2 1
3 1
DEPOT_SECTION
1
-1
EOF